COMMENT : 48 capitals of the US (Padberg/Rinaldi)
6734 2233 5530 401 3082 7608 7573 7265 6898 1112 5468 5989 4706 4612 6347 6107 7611 7462 7732 5900 4483 6101 5199 1633 4307 675 7555 7541 3177 7352 7545 3245 6426 4608 23 7248 7762 7392 3484 6271 4985 1916 7280 7509 10 6807 5185 3023
1453 10 1424 841 1644 4458 3716 1268 1885 2049 2606 2873 2674 2035 2683 669 5184 3590 4723 3561 3369 1110 2182 2809 2322 1006 4819 3981 756 4506 2801 3305 3173 1198 2216 3779 4595 2244 2829 2135 140 1569 4899 3239 2676 2993 3258 1942
130355 130355 127968 126478 123934 122704 122704 114591 114215 114215 111827 111827 109141 109141 106922 106922 101344 101344 101344 101344 99914.8 98734.9 98734.9 95698.3 95698.3 95698.3 95698.3 94031.9 94031.9 92659.4 85728.4 85728.4 85728.4 85728.4 85728.4 85728.4 85728.4 85728.4 81865.9 79823.7 79823.7 79823.7 79823.7 79823.7 79823.7 79823.7 78943.5 78587.5 78587.5 78587.5 77850.5 77370.5 77370.5 77370.5 77370.5 76063.9 76063.9 74884.6 74884.6 74884.6 74818.4 74818.4 74674.4 74674.4 74572.4 71949.9 71949.9 71949.9 71949.9 71949.9 71949.9 71949.9 71949.9 71949.9 71949.9 71949.9 70069.8 67762.5 67762.5 67762.5 67762.5 67762.5 67762.5 67762.5 66552.8 66552.8 66552.8 66552.8 66552.8 64428.7 64428.7 63352.3 63352.3 62468.1 62468.1 62468.1 62468.1 62468.1 62468.1 62302.8 62302.8 57630.3 57630.3 57630.3 57630.3 57630.3 57630.3 57070.5 57070.5 57070.5 57070.5 57070.5 57070.5 57070.5 57070.5 57070.5 57070.5 56887.5 56887.5 56887.5 56868.7 55011 55011 55011 55011 55011 54499.4 52813.6 52813.6 52813.6 52226.7 52226.7 52226.7 52226.7 52226.7 52226.7 52226.7 52226.7 52226.7 52226.7 52226.7 52226.7 52048.6 52048.6 51543.6 51543.6 51543.6 50400.9 50400.9 50400.9 49848.5 49848.5 49531.3 49531.3 49531.3 49531.3 49531.3 49531.3 49531.3 49531.3 49191.4 49191.4 49121 49121 49121 49121 49121 49121 49121 49121 48488.3 48488.3 48488.3 48488.3 48488.3 48299.2 48299.2 48299.2 48299.2 48299.2 46307.5 46307.5 46307.5 46307.5 46307.5 46307.5 46307.5 46307.5 46307.5 46307.5 46307.5 46307.5 46307.5 46307.5 46307.5 46307.5 46307.5 46307.5 46307.5 46307.5 46250.2 46250.2 46250.2 46250.2 46250.2 46250.2 46250.2 46250.2 46216.7 46216.7 46216.7 45260.6 45260.6 45260.6 45260.6 45260.6 45260.6 45260.6 45066.5 45066.5 45066.5 45066.5 45066.5 45066.5 45066.5 44421.6 44421.6 44421.6 44421.6 44421.6 44421.6 44421.6 44421.6 44421.6 44421.6 44421.6 44421.6 44421.6 44421.6 44421.6 44421.6 44421.6 44421.6 44421.6 44421.6 44112.1 44112.1 44112.1 44112.1 44112.1 43967.3 43672.3 43587 43587 43587 43587 43587 43587 43587 43587 43587 43587 43587 43587 43324.8 43324.8 43324.8 43247.9 43247.9 43247.9 43247.9 42843.5 42843.5 42843.5 42843.5 42843.5 42843.5 42843.5 42843.5 42843.5 42843.5 42843.5 42692.4 42692.4 42401.3 42401.3 42401.3 42401.3 42401.3 42006 42006 42006 42006 42006 42006 41499.1 41499.1 41499.1 41499.1 41499.1 41499.1 41499.1 41499.1 41499.1 41499.1 41499.1 41499.1 41499.1 41499.1 41499.1 41499.1 41499.1 41499.1 41499.1 41499.1 41499.1 41499.1 41499.1 41499.1 41499.1 41499.1 41059.3 41059.3 41059.3 41059.3 40852.9 40852.9 40850.1 40850.1 40850.1 40850.1 40850.1 40850.1 40850.1 40850.1 39821.6 39821.6 39821.6 39821.6 39821.6 39821.6 39821.6 39821.6 39821.6 39821.6 39821.6 39821.6 39821.6 39821.6 39821.6 39821.6 38985.8 38985.8 38985.8 38985.8 38985.8 38985.8 38985.8 38985.8 38985.8 38985.8 38985.8 38985.8 38874.9 38874.9 38874.9 38874.9 38874.9 38874.9 38874.9 38874.9 38874.9 38874.9 38874.9 38874.9 38874.9 38693.5 38693.5 38693.5 38693.5 38693.5 38693.5 38693.5 38668.5 38668.5 38668.5 38668.5 38668.5 38668.5 38668.5 38668.5 38668.5 38668.5 38668.5 38668.5 38320.3 38320.3 38320.3 38320.3 38320.3 38202.5 38202.5 38202.5 38202.5 38202.5 38202.5 38113.9 38113.9 38113.9 38113.9 38113.9 38113.9 38113.9 38113.9 38113.9 38113.9 38113.9 38042.7 38042.7 38042.7 38042.7 38042.7 38042.7 38042.7 38042.7 38042.7 38042.7 38042.7 38042.7 38042.7 38042.7 38042.7 38042.7 38042.7 38042.7 38042.7 38042.7 38042.7 38042.7 38042.7 38021.1 38021.1 38021.1 38021.1 38021.1 38021.1 38021.1 38021.1 38021.1 38021.1 38021.1 38021.1 38021.1 38021.1 38021.1 38021.1 38021.1 38021.1 38021.1 38021.1 38021.1 38021.1 38021.1 38021.1 38021.1 38021.1 38021.1 38021.1 38021.1 38021.1 38021.1 38021.1 38021.1 38021.1 37532.6 37532.6 37532.6 37532.6 37532.6 37532.6 37532.6 37532.6 37532.6 37532.6 37532.6 37532.6 37532.6 37532.6 37532.6 37532.6 37532.6 37532.6 37532.6 37532.6 37532.6 37532.6 37532.6 37532.6 37532.6 37532.6 37532.6 37532.6 37532.6 37532.6 37532.6 37532.6 37532.6 37532.6 37532.6 37532.6 37532.6 37281.5 37281.5 37281.5 37281.5 37281.5 37281.5 37281.5 37281.5 37281.5 37281.5 37281.5 37281.5 37281.5 37281.5 37281.5 37281.5 37281.5 37281.5 37281.5 37281.5 37281.5 37281.5 37281.5 37281.5 36848.2 36848.2 36848.2 36848.2 36848.2 36848.2 36848.2 36848.2 36848.2 36848.2 36848.2 36848.2 36848.2 36848.2 36848.2 36848.2 36848.2 36848.2 36848.2 36848.2 36848.2 36848.2 36848.2 36848.2 36848.2 36848.2 36848.2 36848.2 36848.2 36848.2 36848.2 36848.2 36848.2 36848.2 36848.2 36848.2 36848.2 36848.2 36848.2 36848.2 36848.2 36848.2 36848.2 36848.2 36848.2 36848.2 36848.2 36848.2 36848.2 36848.2 36848.2 36848.2 36848.2 36848.2 36848.2 36848.2 36848.2 36848.2 36848.2 36848.2 36848.2 36848.2 36848.2 36848.2 36848.2 36848.2 36848.2 36848.2 36848.2 36848.2 36848.2 36848.2 36848.2 36848.2 36848.2 36848.2 36848.2 36848.2 36848.2 36848.2 36848.2 36848.2 36848.2 36848.2 36848.2 36848.2 36848.2 36848.2 36848.2 36848.2 36848.2 36848.2 36848.2 36848.2 36848.2 36848.2 36848.2 36848.2 36726.9 36726.9 36726.9 36726.9 36726.9 36726.9 36726.9 36726.9 36726.9 36726.9 36726.9 36726.9 36726.9 36726.9 36726.9 36726.9 36726.9 36726.9 36726.9 36726.9 36726.9 36726.9 36726.9 36726.9 36726.9 36726.9 36726.9 36726.9 36726.9 36726.9 36726.9 36726.9 36726.9 36726.9 36726.9 36726.9 36726.9 36726.9 36726.9 36726.9 36726.9 36726.9 36726.9 36726.9 36726.9 36726.9 36726.9 36726.9 36726.9 36726.9 36726.9 36726.9 36726.9 36726.9 36726.9 36726.9 36726.9 36726.9 36726.9 36726.9 36726.9 36726.9 36726.9 36726.9 36726.9 36726.9 36726.9 36726.9 36726.9 36726.9 36726.9 36726.9 36726.9 36726.9 36726.9 36726.9 36726.9 36726.9 36726.9 36726.9 36726.9 36726.9 36726.9 36726.9 36726.9 36726.9 36726.9 36726.9 36726.9 36726.9 36726.9 36726.9 36726.9 36726.9 36726.9 36726.9 36726.9 36726.9 36726.9 36726.9 36726.9 36726.9 36726.9 36726.9 36726.9 36726.9 36726.9 36726.9 36726.9 36726.9 36726.9 36726.9 36726.9 36726.9 36726.9 36726.9 36726.9 36726.9 36726.9 36726.9 36726.9 36726.9 36726.9 36726.9 36726.9 36726.9 36726.9 36726.9 36726.9 36726.9 36726.9 36726.9 36726.9 36726.9 36726.9 36726.9 36726.9 36726.9 36726.9 36726.9 36726.9 36726.9 36726.9 36726.9 36726.9 36726.9 36726.9 36726.9 36726.9 36726.9 36726.9 36726.9 36726.9 36726.9 36726.9 36726.9 36726.9 36726.9 36726.9 36726.9 36726.9 36726.9 36726.9 36726.9 36726.9 36726.9 36726.9 36726.9 36726.9 36726.9 36726.9 36726.9 36726.9 36726.9 36726.9 36726.9 36726.9 36726.9 36726.9 36726.9 36726.9 36726.9 36726.9 36726.9 36726.9 36726.9 36726.9 36726.9 36726.9 36726.9 36726.9 36726.9 36726.9 36726.9 36726.9 36726.9 36726.9 36726.9 36726.9 36726.9 36726.9 36726.9 36726.9 36726.9 36726.9 36726.9 36726.9 36726.9 36726.9 36726.9 36726.9 36726.9 36726.9 36726.9 36726.9 36726.9 36726.9 36726.9 36726.9 36726.9 36726.9 36726.9 36726.9 36726.9 36726.9 36726.9 36726.9 36726.9 36726.9 36726.9 36726.9 36726.9 36726.9 36726.9 36726.9 36726.9 36726.9 36726.9 36726.9 36726.9 36726.9 36726.9 36726.9 36726.9 36726.9 36726.9 36726.9 36726.9 36726.9 36726.9 36726.9 36726.9 36726.9 36726.9 36726.9 36726.9 36726.9 36726.9 36726.9 36726.9 36726.9 36726.9 36726.9 36726.9 36726.9 36726.9 36726.9 36726.9 36726.9 36726.9 36726.9 36726.9 36726.9 36726.9 36726.9 36726.9 36726.9 36726.9 36726.9 36726.9 36726.9 36726.9 36726.9 36726.9 36726.9 36726.9 36726.9 36726.9 36726.9 36726.9 36726.9 36726.9 36726.9 36726.9 36726.9 36726.9 36726.9 36726.9 36726.9 36726.9 36726.9 36726.9 36726.9 36726.9 36726.9 36726.9 36726.9 36726.9 36726.9 36726.9 36726.9 36726.9 36726.9 36726.9 36726.9 36726.9 36726.9 36726.9 36726.9 36726.9 36726.9 36726.9 36726.9 36726.9 36726.9 36726.9 36726.9 36726.9 36726.9 36726.9 36726.9 36726.9 36726.9 36726.9 36726.9 36726.9 36726.9 36726.9 36726.9 36726.9 36726.9 36726.9 36726.9 36726.9 36726.9 36726.9 36726.9 36726.9 36726.9 36726.9 36726.9 36726.9 36726.9 36726.9 36726.9 36726.9 36726.9 36726.9 36726.9 36726.9 36726.9 36726.9 36726.9 36726.9 36726.9 36726.9 36726.9 36726.9 36726.9 36726.9 36726.9 36726.9 36726.9 36726.9 36726.9 36726.9 36726.9 36726.9 36726.9 36726.9 36726.9 36726.9 36726.9 36726.9 36726.9 36726.9 36726.9 36726.9 36726.9 36726.9 36726.9 36726.9 36726.9 36726.9 36726.9 36726.9 36726.9 36726.9 36726.9 36726.9 36726.9 36726.9 36726.9 36726.9 36726.9 36726.9 36726.9 36726.9 36726.9 36726.9 36726.9 36726.9 36726.9 36726.9 36726.9 36726.9 36726.9 36726.9 36726.9 36726.9 36726.9 36726.9 36726.9 36726.9 36726.9 36726.9 36726.9 36726.9 36726.9 36726.9 36726.9 36726.9 36726.9 36726.9 36726.9 36726.9 36726.9 36726.9 36726.9 36726.9 36726.9 36726.9 36726.9 36726.9 36726.9 36726.9 36726.9 36726.9 36726.9 36726.9 36726.9 36726.9 36726.9 36726.9 36726.9 36726.9 36726.9 36726.9 36726.9 36726.9 36726.9 36726.9 36726.9 36726.9 36726.9 36726.9 36726.9 36726.9 36726.9 36726.9 36726.9 36726.9 36726.9 36726.9 36726.9 36726.9 36726.9 36726.9 36726.9 36726.9 36726.9 36726.9 36726.9 36726.9 36726.9 36726.9 36726.9 36726.9 36726.9 36726.9 36726.9 36726.9 36726.9 36726.9 36726.9 36726.9 36726.9 36726.9 36726.9 36726.9 36726.9 36726.9 36726.9 36726.9 36726.9 36726.9 36726.9 36726.9 36726.9 36726.9 36726.9 36726.9 36726.9 36726.9 36726.9 36726.9 36726.9 36726.9 36726.9 36726.9 36726.9 36726.9 36726.9 36726.9 36726.9 36726.9 36726.9 36726.9 36726.9 36726.9 36726.9 36726.9 36726.9 36726.9 36726.9 36726.9 36726.9 36726.9 36726.9 36726.9 36726.9 36726.9 36726.9 36726.9 36726.9 36726.9 36726.9 36726.9 36726.9 36726.9 36726.9 36726.9 36726.9 36726.9 36726.9 36726.9 36726.9 36726.9 36726.9 36726.9 36726.9 36726.9 36726.9 36726.9 36726.9 36726.9 36726.9 36726.9 36726.9 36726.9 36726.9 36726.9 36726.9 36726.9 36726.9 36726.9 36726.9 36726.9 36726.9 36726.9 36726.9 36726.9 36726.9 36726.9 36726.9 36726.9 36726.9 36726.9 36726.9 36726.9 36726.9 36726.9 36726.9 36726.9 36726.9 36726.9 36726.9 36726.9 36726.9 36726.9 36726.9 36726.9 36726.9 36726.9 36726.9 36726.9 36726.9 36726.9 36726.9 36726.9 36726.9 36726.9 36726.9 36726.9 36726.9 36726.9 36726.9 36726.9 36726.9 36726.9 36726.9 36726.9 36726.9 36726.9 36726.9 36726.9 36726.9 36726.9 36726.9 36726.9 36726.9 36726.9 36726.9 36726.9 36726.9 36726.9 36726.9 36726.9 36726.9 36726.9 36726.9 36726.9 36726.9 36726.9 36726.9 36726.9 36726.9 36726.9 36726.9 36726.9 36726.9 36726.9 36726.9 36726.9 36726.9 36726.9 36726.9 36726.9 36726.9 36726.9 36726.9 36726.9 36726.9 36726.9 36726.9 36726.9 36726.9 36726.9 36726.9 36726.9 36726.9 36726.9 36726.9 36726.9 36726.9 36726.9 36726.9 36726.9 36726.9 36726.9 36726.9 36726.9 36726.9 36726.9 36726.9 36726.9 36726.9 36726.9 36726.9 36726.9 36726.9 36726.9 36726.9 36726.9 36726.9 36726.9 36726.9 36726.9 36726.9 36726.9 36726.9 36726.9 36726.9 36726.9 36726.9 36726.9 36726.9 36726.9 36726.9 36726.9 36726.9 36726.9 36726.9 36726.9 36726.9 36726.9 36726.9 36726.9 36726.9 36726.9 36726.9 36726.9 36726.9 36726.9 36726.9 36726.9 36726.9 36726.9 36726.9 36726.9 36726.9 36726.9 36726.9 36726.9 36726.9 36726.9 36726.9 36726.9 36726.9 36726.9 36726.9 36726.9 36726.9 36726.9 36726.9 36726.9 36726.9 36726.9 36726.9 36726.9 36726.9 36726.9 36726.9 36726.9 36726.9 36726.9 36726.9 36726.9 36726.9 36726.9 36726.9 36726.9 36726.9 36726.9 36726.9 36726.9 36726.9 36726.9 36726.9 36726.9 36726.9 36726.9 36726.9 36726.9 36726.9 36726.9 36726.9 36726.9 36726.9 36726.9 36726.9 36726.9 36726.9 36726.9 36726.9 36726.9 36726.9 36726.9 36726.9 36726.9 36726.9 36726.9 36726.9 36726.9 36726.9 36726.9 36726.9 36726.9 36726.9 36726.9 36726.9 36726.9 36726.9 36726.9 36726.9 36726.9 36726.9 36726.9 36726.9 36726.9 36726.9 36726.9 36726.9 36726.9 36726.9 36726.9 36726.9 36726.9 36726.9 36726.9 36726.9 36726.9 36726.9 36726.9 36726.9 36726.9 36726.9 36726.9 36726.9 36726.9 36726.9 36726.9 36726.9 36726.9 36726.9 36726.9 36726.9 36726.9 36726.9 36726.9 36726.9 36726.9 36726.9 36726.9 36726.9 36726.9 36726.9 36726.9 36726.9 36726.9 36726.9 36726.9 36726.9 36726.9 36726.9 36726.9 36726.9 36726.9 36726.9 36726.9 36726.9 36726.9 36726.9 36726.9 36726.9 36726.9 36726.9 36726.9 36726.9 36726.9 36726.9 36726.9 36726.9 36726.9 36726.9 36726.9 36726.9 36726.9 36726.9 36726.9 36726.9 36726.9 36726.9 36726.9 36726.9 36726.9 36726.9 36726.9 36726.9 36726.9 36726.9 36726.9 36726.9 36726.9 36726.9 36726.9 36726.9 36726.9 36726.9 36726.9 36726.9 36726.9 36726.9 36726.9 36726.9 36726.9 36726.9 36726.9 36726.9 36726.9 36726.9 36726.9 36726.9 36726.9 36726.9 36726.9 36726.9 36726.9 36726.9 36726.9 36726.9 36726.9 36726.9 36726.9 36726.9 36726.9 36726.9 36726.9 36726.9 36726.9 36726.9 36726.9 36726.9 36726.9 36726.9 36726.9 36726.9 36726.9 36726.9 36726.9 36726.9 36726.9 36726.9 36726.9 36726.9 36726.9 36726.9 36726.9 36726.9 36726.9 36726.9 36726.9 36726.9 36726.9 36726.9 36726.9 36726.9 36726.9 36726.9 36726.9 36726.9 36726.9 36726.9 36726.9 36726.9 36726.9 36726.9 36726.9 36726.9 36726.9 36726.9 36726.9 36726.9 36726.9 36726.9 36726.9 36726.9 36726.9 36726.9 36726.9 36726.9 36726.9 36726.9 36726.9 36726.9 36726.9 36726.9 36726.9 36726.9 36726.9 36726.9 36726.9 36726.9 36726.9 36726.9 36726.9 36726.9 36726.9 36726.9 36726.9 36726.9 36726.9 36726.9 36726.9 36726.9 36726.9 36726.9 36726.9 36726.9 36726.9 36726.9 36726.9 36726.9 36726.9 36726.9 36726.9 36726.9 36726.9 36726.9 36726.9 36726.9 36726.9 36726.9 36726.9 36726.9 36726.9 36726.9 36726.9 36726.9 36726.9 36726.9 36726.9 36726.9 36726.9 36726.9 36726.9 36726.9 36726.9 36726.9 36726.9 36726.9 36726.9 36726.9 36726.9 36726.9 36726.9 36726.9 36726.9 36726.9 36726.9 36726.9 36726.9 36726.9 36726.9 36726.9 36726.9 36726.9 36726.9 36726.9 36726.9 36726.9 36726.9 36726.9 36726.9 36726.9 36726.9 36726.9 36726.9 36726.9 36726.9 36726.9 36726.9 36726.9 36726.9 36726.9 36726.9 36726.9 36726.9 36726.9 36726.9 36726.9 36726.9 36726.9 36726.9 36726.9 36726.9 36726.9 36726.9 36726.9 36726.9 36726.9 36726.9 36726.9 36726.9 36726.9 36726.9 36726.9 36726.9 36726.9 36726.9 36726.9 36726.9 36726.9 36726.9 36726.9 36726.9 36726.9 36726.9 36726.9 36726.9 36726.9 36726.9 36726.9 36726.9 36726.9 36726.9 36726.9 36726.9 36726.9 36726.9 36726.9 36726.9 36726.9 36726.9 36726.9 36726.9 36726.9 36726.9 36726.9 36726.9 36726.9 36726.9 36726.9 36726.9 36726.9 36726.9 36726.9 36726.9 36726.9 36726.9 36726.9 36726.9 36726.9 36726.9 36726.9 36726.9 36726.9 36726.9 36726.9 36726.9 36726.9 36726.9 36726.9 36726.9 36726.9 36726.9 36726.9 36726.9 36726.9 36726.9 36726.9 36726.9 36726.9 36726.9 36726.9 36726.9 36726.9 36726.9 36726.9 36726.9 36726.9 36726.9 36726.9 36726.9 36726.9 36726.9 36726.9 36726.9 36726.9 36726.9 36726.9 36726.9 36726.9 36726.9 36726.9 36726.9 36726.9 36726.9 36726.9 36726.9 36726.9 36726.9 36726.9 36726.9 36726.9 36726.9 36726.9 36726.9 36726.9 36726.9 36726.9 36726.9 36726.9 36726.9 36726.9 36726.9 36726.9 36726.9 36726.9 36726.9 36726.9 36726.9 36726.9 36726.9 36726.9 36726.9 36726.9 36726.9 36726.9 36726.9 36726.9 36726.9 36726.9 36726.9 36726.9 36726.9 36726.9 36726.9 36726.9 36726.9 36726.9 36726.9 36726.9 36726.9 36726.9 36726.9 36726.9 36726.9 36726.9 36726.9 36726.9 36726.9 36726.9 36726.9 36726.9 36726.9 36726.9 36726.9 36726.9 36726.9 36726.9 36726.9 36726.9 36726.9 36726.9 36726.9 36726.9 36726.9 36726.9 36726.9 36726.9 36726.9 36726.9 36726.9 36726.9 36726.9 36726.9 36726.9 36726.9 36726.9 36726.9 36726.9 36726.9 36726.9 36726.9 36726.9 36726.9 36726.9 36726.9 36726.9 36726.9 36726.9 36726.9 36726.9 36726.9 36726.9 36726.9 36726.9 36726.9 36726.9 36726.9 36726.9 36726.9 36726.9 36726.9 36726.9 36726.9 36726.9 36726.9 36726.9 36726.9 36726.9 36726.9 36726.9 36726.9 36726.9 36726.9 36726.9 36726.9 36726.9 36726.9 36726.9 36726.9 36726.9 36726.9 36726.9 36726.9 36726.9 36726.9 36726.9 36726.9 36726.9 36726.9 36726.9 36726.9 36726.9 36726.9 36726.9 36726.9 36726.9 36726.9 36726.9 36726.9 36726.9 36726.9 36726.9 36726.9 36726.9 36726.9 36726.9 36726.9 36726.9 36726.9 36726.9 36726.9 36726.9 36726.9 36726.9 36726.9 36726.9 36726.9 36726.9 36726.9 36726.9 36726.9 36726.9 36726.9 36726.9 36726.9 36726.9 36726.9 36726.9 36726.9 36726.9 36726.9 36726.9 36726.9
33 12 11 23 3 22 1 8 16 41 34 14 13 25 2 26 4 35 45 10 24 42 29 5 48 39 32 21 47 20 15 40 9 38 31 44 18 7 6 37 19 27 17 43 30 28 36 46
1 8 38 31 44 18 7 28 6 37 19 27 17 43 30 36 46 33 20 47 21 32 39 48 5 42 24 10 45 35 4 26 2 29 34 41 16 22 3 23 14 25 13 11 12 15 40 9
